NAME: instance_11
TYPE: TSP
COMMENT: 11-city problem
DIMENSION: 11
EDGE_WEIGHT_TYPE: EUC_2D
NODE_COORD_SECTION
0 509 667
1 279 905
2 772 389
3 60 986
4 252 664
5 95 687
6 937 57
7 703 543
8 787 649
9 940 376
10 880 752
EOF
